Route #1: 1 11 15 10 13 1 
Route #2: 1 1 12 1 
Route #3: 1 6 1 
Route #4: 1 4 5 1 
Route #5: 1 2 1 
Route #6: 1 7 9 1 
Route #7: 1 3 14 1 
Route #8: 1 8 1 

Cost 421.223
Time 0.0414


 * Another infos *

 Iterations: 16 Time: 0.0414 sec - 0.0007 min - 0.0000 horas
0.0000 h 0.0007 min
Problem dimension: 16
